p cnf 347 1585
c p weight 142 0 0
c p weight -142 1 0
c p weight 143 1 0
c p weight -143 1 0
c p weight 344 -1 0
c p weight -344 1 0
c p weight 347 0.5 0
347 0
-137 0
-135 0
-133 0
-131 0
-129 0
-127 0
-125 0
-123 0
-121 0
-119 0
-117 0
-115 0
-113 0
-111 0
-109 0
-107 0
-105 0
-103 0
-101 0
-99 0
-97 0
-95 0
-93 0
-91 0
-89 0
-87 0
-85 0
-83 0
-81 0
-79 0
-77 0
-75 0
-73 0
-71 0
-69 0
-67 0
-65 0
-63 0
-61 0
-59 0
-57 0
-55 0
-53 0
-51 0
-49 0
-47 0
-45 0
-43 0
-41 0
-39 0
-37 0
-35 0
-33 0
-31 0
-29 0
-27 0
-25 0
-23 0
-21 0
-19 0
-17 0
-15 0
-13 0
-11 0
-9 0
-7 0
-5 0
-3 0
-1 0
138 -137 135 0
138 -137 136 0
-138 137 135 0
-138 137 136 0
138 137 -135 -136 0
-138 -137 -135 -136 0
139 135 -136 0
139 -135 136 0
-139 135 136 0
-139 -135 -136 0
140 141 -138 0
140 -138 139 0
-140 141 138 0
-140 138 139 0
140 -138 -135 0
-140 138 -135 0
140 -141 138 135 -139 0
-140 -141 -138 135 -139 0
141 -135 139 0
-141 135 139 0
-142 139 0
141 -142 -135 0
-141 -142 135 0
141 142 135 -139 0
-141 142 -135 -139 0
-143 139 0
141 -143 135 0
-141 -143 -135 0
141 143 -135 -139 0
-141 143 135 -139 0
144 -140 141 0
144 -140 139 0
-144 140 141 0
-144 140 139 0
144 140 -141 -139 0
-144 -140 -141 -139 0
145 141 -139 0
145 -141 139 0
-145 141 139 0
-145 -141 -139 0
146 -144 141 0
146 -144 134 0
-146 144 141 0
-146 144 134 0
146 -144 133 -145 0
146 -144 -133 145 0
-146 144 133 -145 0
-146 144 -133 145 0
146 144 -141 133 145 -134 0
146 144 -141 -133 -145 -134 0
-146 -144 -141 133 145 -134 0
-146 -144 -141 -133 -145 -134 0
148 141 -133 0
148 -141 133 0
-148 141 133 0
-148 -141 -133 0
147 145 -134 0
147 -145 134 0
-147 145 134 0
-147 -145 -134 0
149 -146 148 0
149 -146 132 0
-149 146 148 0
-149 146 132 0
149 -146 131 -134 0
149 -146 -131 134 0
-149 146 131 -134 0
-149 146 -131 134 0
149 146 -148 131 134 -132 0
149 146 -148 -131 -134 -132 0
-149 -146 -148 131 134 -132 0
-149 -146 -148 -131 -134 -132 0
151 148 -131 0
151 -148 131 0
-151 148 131 0
-151 -148 -131 0
150 134 -132 0
150 -134 132 0
-150 134 132 0
-150 -134 -132 0
152 -149 151 0
152 -149 130 0
-152 149 151 0
-152 149 130 0
152 -149 129 -132 0
152 -149 -129 132 0
-152 149 129 -132 0
-152 149 -129 132 0
152 149 -151 129 132 -130 0
152 149 -151 -129 -132 -130 0
-152 -149 -151 129 132 -130 0
-152 -149 -151 -129 -132 -130 0
154 151 -129 0
154 -151 129 0
-154 151 129 0
-154 -151 -129 0
153 132 -130 0
153 -132 130 0
-153 132 130 0
-153 -132 -130 0
155 -152 154 0
155 -152 128 0
-155 152 154 0
-155 152 128 0
155 -152 127 -130 0
155 -152 -127 130 0
-155 152 127 -130 0
-155 152 -127 130 0
155 152 -154 127 130 -128 0
155 152 -154 -127 -130 -128 0
-155 -152 -154 127 130 -128 0
-155 -152 -154 -127 -130 -128 0
157 154 -127 0
157 -154 127 0
-157 154 127 0
-157 -154 -127 0
156 130 -128 0
156 -130 128 0
-156 130 128 0
-156 -130 -128 0
158 -155 157 0
158 -155 126 0
-158 155 157 0
-158 155 126 0
158 -155 125 -128 0
158 -155 -125 128 0
-158 155 125 -128 0
-158 155 -125 128 0
158 155 -157 125 128 -126 0
158 155 -157 -125 -128 -126 0
-158 -155 -157 125 128 -126 0
-158 -155 -157 -125 -128 -126 0
160 157 -125 0
160 -157 125 0
-160 157 125 0
-160 -157 -125 0
159 128 -126 0
159 -128 126 0
-159 128 126 0
-159 -128 -126 0
161 -158 160 0
161 -158 124 0
-161 158 160 0
-161 158 124 0
161 -158 123 -126 0
161 -158 -123 126 0
-161 158 123 -126 0
-161 158 -123 126 0
161 158 -160 123 126 -124 0
161 158 -160 -123 -126 -124 0
-161 -158 -160 123 126 -124 0
-161 -158 -160 -123 -126 -124 0
163 160 -123 0
163 -160 123 0
-163 160 123 0
-163 -160 -123 0
162 126 -124 0
162 -126 124 0
-162 126 124 0
-162 -126 -124 0
164 -161 163 0
164 -161 122 0
-164 161 163 0
-164 161 122 0
164 -161 121 -124 0
164 -161 -121 124 0
-164 161 121 -124 0
-164 161 -121 124 0
164 161 -163 121 124 -122 0
164 161 -163 -121 -124 -122 0
-164 -161 -163 121 124 -122 0
-164 -161 -163 -121 -124 -122 0
166 163 -121 0
166 -163 121 0
-166 163 121 0
-166 -163 -121 0
165 124 -122 0
165 -124 122 0
-165 124 122 0
-165 -124 -122 0
167 -164 166 0
167 -164 120 0
-167 164 166 0
-167 164 120 0
167 -164 119 -122 0
167 -164 -119 122 0
-167 164 119 -122 0
-167 164 -119 122 0
167 164 -166 119 122 -120 0
167 164 -166 -119 -122 -120 0
-167 -164 -166 119 122 -120 0
-167 -164 -166 -119 -122 -120 0
169 166 -119 0
169 -166 119 0
-169 166 119 0
-169 -166 -119 0
168 122 -120 0
168 -122 120 0
-168 122 120 0
-168 -122 -120 0
170 -167 169 0
170 -167 118 0
-170 167 169 0
-170 167 118 0
170 -167 117 -120 0
170 -167 -117 120 0
-170 167 117 -120 0
-170 167 -117 120 0
170 167 -169 117 120 -118 0
170 167 -169 -117 -120 -118 0
-170 -167 -169 117 120 -118 0
-170 -167 -169 -117 -120 -118 0
172 169 -117 0
172 -169 117 0
-172 169 117 0
-172 -169 -117 0
171 120 -118 0
171 -120 118 0
-171 120 118 0
-171 -120 -118 0
173 -170 172 0
173 -170 116 0
-173 170 172 0
-173 170 116 0
173 -170 115 -118 0
173 -170 -115 118 0
-173 170 115 -118 0
-173 170 -115 118 0
173 170 -172 115 118 -116 0
173 170 -172 -115 -118 -116 0
-173 -170 -172 115 118 -116 0
-173 -170 -172 -115 -118 -116 0
175 172 -115 0
175 -172 115 0
-175 172 115 0
-175 -172 -115 0
174 118 -116 0
174 -118 116 0
-174 118 116 0
-174 -118 -116 0
176 -173 175 0
176 -173 114 0
-176 173 175 0
-176 173 114 0
176 -173 113 -116 0
176 -173 -113 116 0
-176 173 113 -116 0
-176 173 -113 116 0
176 173 -175 113 116 -114 0
176 173 -175 -113 -116 -114 0
-176 -173 -175 113 116 -114 0
-176 -173 -175 -113 -116 -114 0
178 175 -113 0
178 -175 113 0
-178 175 113 0
-178 -175 -113 0
177 116 -114 0
177 -116 114 0
-177 116 114 0
-177 -116 -114 0
179 -176 178 0
179 -176 112 0
-179 176 178 0
-179 176 112 0
179 -176 111 -114 0
179 -176 -111 114 0
-179 176 111 -114 0
-179 176 -111 114 0
179 176 -178 111 114 -112 0
179 176 -178 -111 -114 -112 0
-179 -176 -178 111 114 -112 0
-179 -176 -178 -111 -114 -112 0
181 178 -111 0
181 -178 111 0
-181 178 111 0
-181 -178 -111 0
180 114 -112 0
180 -114 112 0
-180 114 112 0
-180 -114 -112 0
182 -179 181 0
182 -179 110 0
-182 179 181 0
-182 179 110 0
182 -179 109 -112 0
182 -179 -109 112 0
-182 179 109 -112 0
-182 179 -109 112 0
182 179 -181 109 112 -110 0
182 179 -181 -109 -112 -110 0
-182 -179 -181 109 112 -110 0
-182 -179 -181 -109 -112 -110 0
184 181 -109 0
184 -181 109 0
-184 181 109 0
-184 -181 -109 0
183 112 -110 0
183 -112 110 0
-183 112 110 0
-183 -112 -110 0
185 -182 184 0
185 -182 108 0
-185 182 184 0
-185 182 108 0
185 -182 107 -110 0
185 -182 -107 110 0
-185 182 107 -110 0
-185 182 -107 110 0
185 182 -184 107 110 -108 0
185 182 -184 -107 -110 -108 0
-185 -182 -184 107 110 -108 0
-185 -182 -184 -107 -110 -108 0
187 184 -107 0
187 -184 107 0
-187 184 107 0
-187 -184 -107 0
186 110 -108 0
186 -110 108 0
-186 110 108 0
-186 -110 -108 0
188 -185 187 0
188 -185 106 0
-188 185 187 0
-188 185 106 0
188 -185 105 -108 0
188 -185 -105 108 0
-188 185 105 -108 0
-188 185 -105 108 0
188 185 -187 105 108 -106 0
188 185 -187 -105 -108 -106 0
-188 -185 -187 105 108 -106 0
-188 -185 -187 -105 -108 -106 0
190 187 -105 0
190 -187 105 0
-190 187 105 0
-190 -187 -105 0
189 108 -106 0
189 -108 106 0
-189 108 106 0
-189 -108 -106 0
191 -188 190 0
191 -188 104 0
-191 188 190 0
-191 188 104 0
191 -188 103 -106 0
191 -188 -103 106 0
-191 188 103 -106 0
-191 188 -103 106 0
191 188 -190 103 106 -104 0
191 188 -190 -103 -106 -104 0
-191 -188 -190 103 106 -104 0
-191 -188 -190 -103 -106 -104 0
193 190 -103 0
193 -190 103 0
-193 190 103 0
-193 -190 -103 0
192 106 -104 0
192 -106 104 0
-192 106 104 0
-192 -106 -104 0
194 -191 193 0
194 -191 102 0
-194 191 193 0
-194 191 102 0
194 -191 101 -104 0
194 -191 -101 104 0
-194 191 101 -104 0
-194 191 -101 104 0
194 191 -193 101 104 -102 0
194 191 -193 -101 -104 -102 0
-194 -191 -193 101 104 -102 0
-194 -191 -193 -101 -104 -102 0
196 193 -101 0
196 -193 101 0
-196 193 101 0
-196 -193 -101 0
195 104 -102 0
195 -104 102 0
-195 104 102 0
-195 -104 -102 0
197 -194 196 0
197 -194 100 0
-197 194 196 0
-197 194 100 0
197 -194 99 -102 0
197 -194 -99 102 0
-197 194 99 -102 0
-197 194 -99 102 0
197 194 -196 99 102 -100 0
197 194 -196 -99 -102 -100 0
-197 -194 -196 99 102 -100 0
-197 -194 -196 -99 -102 -100 0
199 196 -99 0
199 -196 99 0
-199 196 99 0
-199 -196 -99 0
198 102 -100 0
198 -102 100 0
-198 102 100 0
-198 -102 -100 0
200 -197 199 0
200 -197 98 0
-200 197 199 0
-200 197 98 0
200 -197 97 -100 0
200 -197 -97 100 0
-200 197 97 -100 0
-200 197 -97 100 0
200 197 -199 97 100 -98 0
200 197 -199 -97 -100 -98 0
-200 -197 -199 97 100 -98 0
-200 -197 -199 -97 -100 -98 0
202 199 -97 0
202 -199 97 0
-202 199 97 0
-202 -199 -97 0
201 100 -98 0
201 -100 98 0
-201 100 98 0
-201 -100 -98 0
203 -200 202 0
203 -200 96 0
-203 200 202 0
-203 200 96 0
203 -200 95 -98 0
203 -200 -95 98 0
-203 200 95 -98 0
-203 200 -95 98 0
203 200 -202 95 98 -96 0
203 200 -202 -95 -98 -96 0
-203 -200 -202 95 98 -96 0
-203 -200 -202 -95 -98 -96 0
205 202 -95 0
205 -202 95 0
-205 202 95 0
-205 -202 -95 0
204 98 -96 0
204 -98 96 0
-204 98 96 0
-204 -98 -96 0
206 -203 205 0
206 -203 94 0
-206 203 205 0
-206 203 94 0
206 -203 93 -96 0
206 -203 -93 96 0
-206 203 93 -96 0
-206 203 -93 96 0
206 203 -205 93 96 -94 0
206 203 -205 -93 -96 -94 0
-206 -203 -205 93 96 -94 0
-206 -203 -205 -93 -96 -94 0
208 205 -93 0
208 -205 93 0
-208 205 93 0
-208 -205 -93 0
207 96 -94 0
207 -96 94 0
-207 96 94 0
-207 -96 -94 0
209 -206 208 0
209 -206 92 0
-209 206 208 0
-209 206 92 0
209 -206 91 -94 0
209 -206 -91 94 0
-209 206 91 -94 0
-209 206 -91 94 0
209 206 -208 91 94 -92 0
209 206 -208 -91 -94 -92 0
-209 -206 -208 91 94 -92 0
-209 -206 -208 -91 -94 -92 0
211 208 -91 0
211 -208 91 0
-211 208 91 0
-211 -208 -91 0
210 94 -92 0
210 -94 92 0
-210 94 92 0
-210 -94 -92 0
212 -209 211 0
212 -209 90 0
-212 209 211 0
-212 209 90 0
212 -209 89 -92 0
212 -209 -89 92 0
-212 209 89 -92 0
-212 209 -89 92 0
212 209 -211 89 92 -90 0
212 209 -211 -89 -92 -90 0
-212 -209 -211 89 92 -90 0
-212 -209 -211 -89 -92 -90 0
214 211 -89 0
214 -211 89 0
-214 211 89 0
-214 -211 -89 0
213 92 -90 0
213 -92 90 0
-213 92 90 0
-213 -92 -90 0
215 -212 214 0
215 -212 88 0
-215 212 214 0
-215 212 88 0
215 -212 87 -90 0
215 -212 -87 90 0
-215 212 87 -90 0
-215 212 -87 90 0
215 212 -214 87 90 -88 0
215 212 -214 -87 -90 -88 0
-215 -212 -214 87 90 -88 0
-215 -212 -214 -87 -90 -88 0
217 214 -87 0
217 -214 87 0
-217 214 87 0
-217 -214 -87 0
216 90 -88 0
216 -90 88 0
-216 90 88 0
-216 -90 -88 0
218 -215 217 0
218 -215 86 0
-218 215 217 0
-218 215 86 0
218 -215 85 -88 0
218 -215 -85 88 0
-218 215 85 -88 0
-218 215 -85 88 0
218 215 -217 85 88 -86 0
218 215 -217 -85 -88 -86 0
-218 -215 -217 85 88 -86 0
-218 -215 -217 -85 -88 -86 0
220 217 -85 0
220 -217 85 0
-220 217 85 0
-220 -217 -85 0
219 88 -86 0
219 -88 86 0
-219 88 86 0
-219 -88 -86 0
221 -218 220 0
221 -218 84 0
-221 218 220 0
-221 218 84 0
221 -218 83 -86 0
221 -218 -83 86 0
-221 218 83 -86 0
-221 218 -83 86 0
221 218 -220 83 86 -84 0
221 218 -220 -83 -86 -84 0
-221 -218 -220 83 86 -84 0
-221 -218 -220 -83 -86 -84 0
223 220 -83 0
223 -220 83 0
-223 220 83 0
-223 -220 -83 0
222 86 -84 0
222 -86 84 0
-222 86 84 0
-222 -86 -84 0
224 -221 223 0
224 -221 82 0
-224 221 223 0
-224 221 82 0
224 -221 81 -84 0
224 -221 -81 84 0
-224 221 81 -84 0
-224 221 -81 84 0
224 221 -223 81 84 -82 0
224 221 -223 -81 -84 -82 0
-224 -221 -223 81 84 -82 0
-224 -221 -223 -81 -84 -82 0
226 223 -81 0
226 -223 81 0
-226 223 81 0
-226 -223 -81 0
225 84 -82 0
225 -84 82 0
-225 84 82 0
-225 -84 -82 0
227 -224 226 0
227 -224 80 0
-227 224 226 0
-227 224 80 0
227 -224 79 -82 0
227 -224 -79 82 0
-227 224 79 -82 0
-227 224 -79 82 0
227 224 -226 79 82 -80 0
227 224 -226 -79 -82 -80 0
-227 -224 -226 79 82 -80 0
-227 -224 -226 -79 -82 -80 0
229 226 -79 0
229 -226 79 0
-229 226 79 0
-229 -226 -79 0
228 82 -80 0
228 -82 80 0
-228 82 80 0
-228 -82 -80 0
230 -227 229 0
230 -227 78 0
-230 227 229 0
-230 227 78 0
230 -227 77 -80 0
230 -227 -77 80 0
-230 227 77 -80 0
-230 227 -77 80 0
230 227 -229 77 80 -78 0
230 227 -229 -77 -80 -78 0
-230 -227 -229 77 80 -78 0
-230 -227 -229 -77 -80 -78 0
232 229 -77 0
232 -229 77 0
-232 229 77 0
-232 -229 -77 0
231 80 -78 0
231 -80 78 0
-231 80 78 0
-231 -80 -78 0
233 -230 232 0
233 -230 76 0
-233 230 232 0
-233 230 76 0
233 -230 75 -78 0
233 -230 -75 78 0
-233 230 75 -78 0
-233 230 -75 78 0
233 230 -232 75 78 -76 0
233 230 -232 -75 -78 -76 0
-233 -230 -232 75 78 -76 0
-233 -230 -232 -75 -78 -76 0
235 232 -75 0
235 -232 75 0
-235 232 75 0
-235 -232 -75 0
234 78 -76 0
234 -78 76 0
-234 78 76 0
-234 -78 -76 0
236 -233 235 0
236 -233 74 0
-236 233 235 0
-236 233 74 0
236 -233 73 -76 0
236 -233 -73 76 0
-236 233 73 -76 0
-236 233 -73 76 0
236 233 -235 73 76 -74 0
236 233 -235 -73 -76 -74 0
-236 -233 -235 73 76 -74 0
-236 -233 -235 -73 -76 -74 0
238 235 -73 0
238 -235 73 0
-238 235 73 0
-238 -235 -73 0
237 76 -74 0
237 -76 74 0
-237 76 74 0
-237 -76 -74 0
239 -236 238 0
239 -236 72 0
-239 236 238 0
-239 236 72 0
239 -236 71 -74 0
239 -236 -71 74 0
-239 236 71 -74 0
-239 236 -71 74 0
239 236 -238 71 74 -72 0
239 236 -238 -71 -74 -72 0
-239 -236 -238 71 74 -72 0
-239 -236 -238 -71 -74 -72 0
241 238 -71 0
241 -238 71 0
-241 238 71 0
-241 -238 -71 0
240 74 -72 0
240 -74 72 0
-240 74 72 0
-240 -74 -72 0
242 -239 241 0
242 -239 70 0
-242 239 241 0
-242 239 70 0
242 -239 69 -72 0
242 -239 -69 72 0
-242 239 69 -72 0
-242 239 -69 72 0
242 239 -241 69 72 -70 0
242 239 -241 -69 -72 -70 0
-242 -239 -241 69 72 -70 0
-242 -239 -241 -69 -72 -70 0
244 241 -69 0
244 -241 69 0
-244 241 69 0
-244 -241 -69 0
243 72 -70 0
243 -72 70 0
-243 72 70 0
-243 -72 -70 0
245 -242 244 0
245 -242 68 0
-245 242 244 0
-245 242 68 0
245 -242 67 -70 0
245 -242 -67 70 0
-245 242 67 -70 0
-245 242 -67 70 0
245 242 -244 67 70 -68 0
245 242 -244 -67 -70 -68 0
-245 -242 -244 67 70 -68 0
-245 -242 -244 -67 -70 -68 0
247 244 -67 0
247 -244 67 0
-247 244 67 0
-247 -244 -67 0
246 70 -68 0
246 -70 68 0
-246 70 68 0
-246 -70 -68 0
248 -245 247 0
248 -245 66 0
-248 245 247 0
-248 245 66 0
248 -245 65 -68 0
248 -245 -65 68 0
-248 245 65 -68 0
-248 245 -65 68 0
248 245 -247 65 68 -66 0
248 245 -247 -65 -68 -66 0
-248 -245 -247 65 68 -66 0
-248 -245 -247 -65 -68 -66 0
250 247 -65 0
250 -247 65 0
-250 247 65 0
-250 -247 -65 0
249 68 -66 0
249 -68 66 0
-249 68 66 0
-249 -68 -66 0
251 -248 250 0
251 -248 64 0
-251 248 250 0
-251 248 64 0
251 -248 63 -66 0
251 -248 -63 66 0
-251 248 63 -66 0
-251 248 -63 66 0
251 248 -250 63 66 -64 0
251 248 -250 -63 -66 -64 0
-251 -248 -250 63 66 -64 0
-251 -248 -250 -63 -66 -64 0
253 250 -63 0
253 -250 63 0
-253 250 63 0
-253 -250 -63 0
252 66 -64 0
252 -66 64 0
-252 66 64 0
-252 -66 -64 0
254 -251 253 0
254 -251 62 0
-254 251 253 0
-254 251 62 0
254 -251 61 -64 0
254 -251 -61 64 0
-254 251 61 -64 0
-254 251 -61 64 0
254 251 -253 61 64 -62 0
254 251 -253 -61 -64 -62 0
-254 -251 -253 61 64 -62 0
-254 -251 -253 -61 -64 -62 0
256 253 -61 0
256 -253 61 0
-256 253 61 0
-256 -253 -61 0
255 64 -62 0
255 -64 62 0
-255 64 62 0
-255 -64 -62 0
257 -254 256 0
257 -254 60 0
-257 254 256 0
-257 254 60 0
257 -254 59 -62 0
257 -254 -59 62 0
-257 254 59 -62 0
-257 254 -59 62 0
257 254 -256 59 62 -60 0
257 254 -256 -59 -62 -60 0
-257 -254 -256 59 62 -60 0
-257 -254 -256 -59 -62 -60 0
259 256 -59 0
259 -256 59 0
-259 256 59 0
-259 -256 -59 0
258 62 -60 0
258 -62 60 0
-258 62 60 0
-258 -62 -60 0
260 -257 259 0
260 -257 58 0
-260 257 259 0
-260 257 58 0
260 -257 57 -60 0
260 -257 -57 60 0
-260 257 57 -60 0
-260 257 -57 60 0
260 257 -259 57 60 -58 0
260 257 -259 -57 -60 -58 0
-260 -257 -259 57 60 -58 0
-260 -257 -259 -57 -60 -58 0
262 259 -57 0
262 -259 57 0
-262 259 57 0
-262 -259 -57 0
261 60 -58 0
261 -60 58 0
-261 60 58 0
-261 -60 -58 0
263 -260 262 0
263 -260 56 0
-263 260 262 0
-263 260 56 0
263 -260 55 -58 0
263 -260 -55 58 0
-263 260 55 -58 0
-263 260 -55 58 0
263 260 -262 55 58 -56 0
263 260 -262 -55 -58 -56 0
-263 -260 -262 55 58 -56 0
-263 -260 -262 -55 -58 -56 0
265 262 -55 0
265 -262 55 0
-265 262 55 0
-265 -262 -55 0
264 58 -56 0
264 -58 56 0
-264 58 56 0
-264 -58 -56 0
266 -263 265 0
266 -263 54 0
-266 263 265 0
-266 263 54 0
266 -263 53 -56 0
266 -263 -53 56 0
-266 263 53 -56 0
-266 263 -53 56 0
266 263 -265 53 56 -54 0
266 263 -265 -53 -56 -54 0
-266 -263 -265 53 56 -54 0
-266 -263 -265 -53 -56 -54 0
268 265 -53 0
268 -265 53 0
-268 265 53 0
-268 -265 -53 0
267 56 -54 0
267 -56 54 0
-267 56 54 0
-267 -56 -54 0
269 -266 268 0
269 -266 52 0
-269 266 268 0
-269 266 52 0
269 -266 51 -54 0
269 -266 -51 54 0
-269 266 51 -54 0
-269 266 -51 54 0
269 266 -268 51 54 -52 0
269 266 -268 -51 -54 -52 0
-269 -266 -268 51 54 -52 0
-269 -266 -268 -51 -54 -52 0
271 268 -51 0
271 -268 51 0
-271 268 51 0
-271 -268 -51 0
270 54 -52 0
270 -54 52 0
-270 54 52 0
-270 -54 -52 0
272 -269 271 0
272 -269 50 0
-272 269 271 0
-272 269 50 0
272 -269 49 -52 0
272 -269 -49 52 0
-272 269 49 -52 0
-272 269 -49 52 0
272 269 -271 49 52 -50 0
272 269 -271 -49 -52 -50 0
-272 -269 -271 49 52 -50 0
-272 -269 -271 -49 -52 -50 0
274 271 -49 0
274 -271 49 0
-274 271 49 0
-274 -271 -49 0
273 52 -50 0
273 -52 50 0
-273 52 50 0
-273 -52 -50 0
275 -272 274 0
275 -272 48 0
-275 272 274 0
-275 272 48 0
275 -272 47 -50 0
275 -272 -47 50 0
-275 272 47 -50 0
-275 272 -47 50 0
275 272 -274 47 50 -48 0
275 272 -274 -47 -50 -48 0
-275 -272 -274 47 50 -48 0
-275 -272 -274 -47 -50 -48 0
277 274 -47 0
277 -274 47 0
-277 274 47 0
-277 -274 -47 0
276 50 -48 0
276 -50 48 0
-276 50 48 0
-276 -50 -48 0
278 -275 277 0
278 -275 46 0
-278 275 277 0
-278 275 46 0
278 -275 45 -48 0
278 -275 -45 48 0
-278 275 45 -48 0
-278 275 -45 48 0
278 275 -277 45 48 -46 0
278 275 -277 -45 -48 -46 0
-278 -275 -277 45 48 -46 0
-278 -275 -277 -45 -48 -46 0
280 277 -45 0
280 -277 45 0
-280 277 45 0
-280 -277 -45 0
279 48 -46 0
279 -48 46 0
-279 48 46 0
-279 -48 -46 0
281 -278 280 0
281 -278 44 0
-281 278 280 0
-281 278 44 0
281 -278 43 -46 0
281 -278 -43 46 0
-281 278 43 -46 0
-281 278 -43 46 0
281 278 -280 43 46 -44 0
281 278 -280 -43 -46 -44 0
-281 -278 -280 43 46 -44 0
-281 -278 -280 -43 -46 -44 0
283 280 -43 0
283 -280 43 0
-283 280 43 0
-283 -280 -43 0
282 46 -44 0
282 -46 44 0
-282 46 44 0
-282 -46 -44 0
284 -281 283 0
284 -281 42 0
-284 281 283 0
-284 281 42 0
284 -281 41 -44 0
284 -281 -41 44 0
-284 281 41 -44 0
-284 281 -41 44 0
284 281 -283 41 44 -42 0
284 281 -283 -41 -44 -42 0
-284 -281 -283 41 44 -42 0
-284 -281 -283 -41 -44 -42 0
286 283 -41 0
286 -283 41 0
-286 283 41 0
-286 -283 -41 0
285 44 -42 0
285 -44 42 0
-285 44 42 0
-285 -44 -42 0
287 -284 286 0
287 -284 40 0
-287 284 286 0
-287 284 40 0
287 -284 39 -42 0
287 -284 -39 42 0
-287 284 39 -42 0
-287 284 -39 42 0
287 284 -286 39 42 -40 0
287 284 -286 -39 -42 -40 0
-287 -284 -286 39 42 -40 0
-287 -284 -286 -39 -42 -40 0
289 286 -39 0
289 -286 39 0
-289 286 39 0
-289 -286 -39 0
288 42 -40 0
288 -42 40 0
-288 42 40 0
-288 -42 -40 0
290 -287 289 0
290 -287 38 0
-290 287 289 0
-290 287 38 0
290 -287 37 -40 0
290 -287 -37 40 0
-290 287 37 -40 0
-290 287 -37 40 0
290 287 -289 37 40 -38 0
290 287 -289 -37 -40 -38 0
-290 -287 -289 37 40 -38 0
-290 -287 -289 -37 -40 -38 0
292 289 -37 0
292 -289 37 0
-292 289 37 0
-292 -289 -37 0
291 40 -38 0
291 -40 38 0
-291 40 38 0
-291 -40 -38 0
293 -290 292 0
293 -290 36 0
-293 290 292 0
-293 290 36 0
293 -290 35 -38 0
293 -290 -35 38 0
-293 290 35 -38 0
-293 290 -35 38 0
293 290 -292 35 38 -36 0
293 290 -292 -35 -38 -36 0
-293 -290 -292 35 38 -36 0
-293 -290 -292 -35 -38 -36 0
295 292 -35 0
295 -292 35 0
-295 292 35 0
-295 -292 -35 0
294 38 -36 0
294 -38 36 0
-294 38 36 0
-294 -38 -36 0
296 -293 295 0
296 -293 34 0
-296 293 295 0
-296 293 34 0
296 -293 33 -36 0
296 -293 -33 36 0
-296 293 33 -36 0
-296 293 -33 36 0
296 293 -295 33 36 -34 0
296 293 -295 -33 -36 -34 0
-296 -293 -295 33 36 -34 0
-296 -293 -295 -33 -36 -34 0
298 295 -33 0
298 -295 33 0
-298 295 33 0
-298 -295 -33 0
297 36 -34 0
297 -36 34 0
-297 36 34 0
-297 -36 -34 0
299 -296 298 0
299 -296 32 0
-299 296 298 0
-299 296 32 0
299 -296 31 -34 0
299 -296 -31 34 0
-299 296 31 -34 0
-299 296 -31 34 0
299 296 -298 31 34 -32 0
299 296 -298 -31 -34 -32 0
-299 -296 -298 31 34 -32 0
-299 -296 -298 -31 -34 -32 0
301 298 -31 0
301 -298 31 0
-301 298 31 0
-301 -298 -31 0
300 34 -32 0
300 -34 32 0
-300 34 32 0
-300 -34 -32 0
302 -299 301 0
302 -299 30 0
-302 299 301 0
-302 299 30 0
302 -299 29 -32 0
302 -299 -29 32 0
-302 299 29 -32 0
-302 299 -29 32 0
302 299 -301 29 32 -30 0
302 299 -301 -29 -32 -30 0
-302 -299 -301 29 32 -30 0
-302 -299 -301 -29 -32 -30 0
304 301 -29 0
304 -301 29 0
-304 301 29 0
-304 -301 -29 0
303 32 -30 0
303 -32 30 0
-303 32 30 0
-303 -32 -30 0
305 -302 304 0
305 -302 28 0
-305 302 304 0
-305 302 28 0
305 -302 27 -30 0
305 -302 -27 30 0
-305 302 27 -30 0
-305 302 -27 30 0
305 302 -304 27 30 -28 0
305 302 -304 -27 -30 -28 0
-305 -302 -304 27 30 -28 0
-305 -302 -304 -27 -30 -28 0
307 304 -27 0
307 -304 27 0
-307 304 27 0
-307 -304 -27 0
306 30 -28 0
306 -30 28 0
-306 30 28 0
-306 -30 -28 0
308 -305 307 0
308 -305 26 0
-308 305 307 0
-308 305 26 0
308 -305 25 -28 0
308 -305 -25 28 0
-308 305 25 -28 0
-308 305 -25 28 0
308 305 -307 25 28 -26 0
308 305 -307 -25 -28 -26 0
-308 -305 -307 25 28 -26 0
-308 -305 -307 -25 -28 -26 0
310 307 -25 0
310 -307 25 0
-310 307 25 0
-310 -307 -25 0
309 28 -26 0
309 -28 26 0
-309 28 26 0
-309 -28 -26 0
311 -308 310 0
311 -308 24 0
-311 308 310 0
-311 308 24 0
311 -308 23 -26 0
311 -308 -23 26 0
-311 308 23 -26 0
-311 308 -23 26 0
311 308 -310 23 26 -24 0
311 308 -310 -23 -26 -24 0
-311 -308 -310 23 26 -24 0
-311 -308 -310 -23 -26 -24 0
313 310 -23 0
313 -310 23 0
-313 310 23 0
-313 -310 -23 0
312 26 -24 0
312 -26 24 0
-312 26 24 0
-312 -26 -24 0
314 -311 313 0
314 -311 22 0
-314 311 313 0
-314 311 22 0
314 -311 21 -24 0
314 -311 -21 24 0
-314 311 21 -24 0
-314 311 -21 24 0
314 311 -313 21 24 -22 0
314 311 -313 -21 -24 -22 0
-314 -311 -313 21 24 -22 0
-314 -311 -313 -21 -24 -22 0
316 313 -21 0
316 -313 21 0
-316 313 21 0
-316 -313 -21 0
315 24 -22 0
315 -24 22 0
-315 24 22 0
-315 -24 -22 0
317 -314 316 0
317 -314 20 0
-317 314 316 0
-317 314 20 0
317 -314 19 -22 0
317 -314 -19 22 0
-317 314 19 -22 0
-317 314 -19 22 0
317 314 -316 19 22 -20 0
317 314 -316 -19 -22 -20 0
-317 -314 -316 19 22 -20 0
-317 -314 -316 -19 -22 -20 0
319 316 -19 0
319 -316 19 0
-319 316 19 0
-319 -316 -19 0
318 22 -20 0
318 -22 20 0
-318 22 20 0
-318 -22 -20 0
320 -317 319 0
320 -317 18 0
-320 317 319 0
-320 317 18 0
320 -317 17 -20 0
320 -317 -17 20 0
-320 317 17 -20 0
-320 317 -17 20 0
320 317 -319 17 20 -18 0
320 317 -319 -17 -20 -18 0
-320 -317 -319 17 20 -18 0
-320 -317 -319 -17 -20 -18 0
322 319 -17 0
322 -319 17 0
-322 319 17 0
-322 -319 -17 0
321 20 -18 0
321 -20 18 0
-321 20 18 0
-321 -20 -18 0
323 -320 322 0
323 -320 16 0
-323 320 322 0
-323 320 16 0
323 -320 15 -18 0
323 -320 -15 18 0
-323 320 15 -18 0
-323 320 -15 18 0
323 320 -322 15 18 -16 0
323 320 -322 -15 -18 -16 0
-323 -320 -322 15 18 -16 0
-323 -320 -322 -15 -18 -16 0
325 322 -15 0
325 -322 15 0
-325 322 15 0
-325 -322 -15 0
324 18 -16 0
324 -18 16 0
-324 18 16 0
-324 -18 -16 0
326 -323 325 0
326 -323 14 0
-326 323 325 0
-326 323 14 0
326 -323 13 -16 0
326 -323 -13 16 0
-326 323 13 -16 0
-326 323 -13 16 0
326 323 -325 13 16 -14 0
326 323 -325 -13 -16 -14 0
-326 -323 -325 13 16 -14 0
-326 -323 -325 -13 -16 -14 0
328 325 -13 0
328 -325 13 0
-328 325 13 0
-328 -325 -13 0
327 16 -14 0
327 -16 14 0
-327 16 14 0
-327 -16 -14 0
329 -326 328 0
329 -326 12 0
-329 326 328 0
-329 326 12 0
329 -326 11 -14 0
329 -326 -11 14 0
-329 326 11 -14 0
-329 326 -11 14 0
329 326 -328 11 14 -12 0
329 326 -328 -11 -14 -12 0
-329 -326 -328 11 14 -12 0
-329 -326 -328 -11 -14 -12 0
331 328 -11 0
331 -328 11 0
-331 328 11 0
-331 -328 -11 0
330 14 -12 0
330 -14 12 0
-330 14 12 0
-330 -14 -12 0
332 -329 331 0
332 -329 10 0
-332 329 331 0
-332 329 10 0
332 -329 9 -12 0
332 -329 -9 12 0
-332 329 9 -12 0
-332 329 -9 12 0
332 329 -331 9 12 -10 0
332 329 -331 -9 -12 -10 0
-332 -329 -331 9 12 -10 0
-332 -329 -331 -9 -12 -10 0
334 331 -9 0
334 -331 9 0
-334 331 9 0
-334 -331 -9 0
333 12 -10 0
333 -12 10 0
-333 12 10 0
-333 -12 -10 0
335 -332 334 0
335 -332 8 0
-335 332 334 0
-335 332 8 0
335 -332 7 -10 0
335 -332 -7 10 0
-335 332 7 -10 0
-335 332 -7 10 0
335 332 -334 7 10 -8 0
335 332 -334 -7 -10 -8 0
-335 -332 -334 7 10 -8 0
-335 -332 -334 -7 -10 -8 0
337 334 -7 0
337 -334 7 0
-337 334 7 0
-337 -334 -7 0
336 10 -8 0
336 -10 8 0
-336 10 8 0
-336 -10 -8 0
338 -335 337 0
338 -335 6 0
-338 335 337 0
-338 335 6 0
338 -335 5 -8 0
338 -335 -5 8 0
-338 335 5 -8 0
-338 335 -5 8 0
338 335 -337 5 8 -6 0
338 335 -337 -5 -8 -6 0
-338 -335 -337 5 8 -6 0
-338 -335 -337 -5 -8 -6 0
340 337 -5 0
340 -337 5 0
-340 337 5 0
-340 -337 -5 0
339 8 -6 0
339 -8 6 0
-339 8 6 0
-339 -8 -6 0
341 -338 340 0
341 -338 4 0
-341 338 340 0
-341 338 4 0
341 -338 3 -6 0
341 -338 -3 6 0
-341 338 3 -6 0
-341 338 -3 6 0
341 338 -340 3 6 -4 0
341 338 -340 -3 -6 -4 0
-341 -338 -340 3 6 -4 0
-341 -338 -340 -3 -6 -4 0
343 340 -3 0
343 -340 3 0
-343 340 3 0
-343 -340 -3 0
342 6 -4 0
342 -6 4 0
-342 6 4 0
-342 -6 -4 0
344 -341 343 0
344 -341 2 0
-344 341 343 0
-344 341 2 0
344 -341 1 -4 0
344 -341 -1 4 0
-344 341 1 -4 0
-344 341 -1 4 0
344 341 -343 1 4 -2 0
344 341 -343 -1 -4 -2 0
-344 -341 -343 1 4 -2 0
-344 -341 -343 -1 -4 -2 0
346 343 -1 0
346 -343 1 0
-346 343 1 0
-346 -343 -1 0
345 4 -2 0
345 -4 2 0
-345 4 2 0
-345 -4 -2 0
-346 0
-343 0
-345 0
-340 0
-342 0
-337 0
-339 0
-334 0
-336 0
-331 0
-333 0
-328 0
-330 0
-325 0
-327 0
-322 0
-324 0
-319 0
-321 0
-316 0
-318 0
-313 0
-315 0
-310 0
-312 0
-307 0
-309 0
-304 0
-306 0
-301 0
-303 0
-298 0
-300 0
-295 0
-297 0
-292 0
-294 0
-289 0
-291 0
-286 0
-288 0
-283 0
-285 0
-280 0
-282 0
-277 0
-279 0
-274 0
-276 0
-271 0
-273 0
-268 0
-270 0
-265 0
-267 0
-262 0
-264 0
-259 0
-261 0
-256 0
-258 0
-253 0
-255 0
-250 0
-252 0
-247 0
-249 0
-244 0
-246 0
-241 0
-243 0
-238 0
-240 0
-235 0
-237 0
-232 0
-234 0
-229 0
-231 0
-226 0
-228 0
-223 0
-225 0
-220 0
-222 0
-217 0
-219 0
-214 0
-216 0
-211 0
-213 0
-208 0
-210 0
-205 0
-207 0
-202 0
-204 0
-199 0
-201 0
-196 0
-198 0
-193 0
-195 0
-190 0
-192 0
-187 0
-189 0
-184 0
-186 0
-181 0
-183 0
-178 0
-180 0
-175 0
-177 0
-172 0
-174 0
-169 0
-171 0
-166 0
-168 0
-163 0
-165 0
-160 0
-162 0
-157 0
-159 0
-154 0
-156 0
-151 0
-153 0
-148 0
-150 0
-141 0
-147 0
